Route #1: 42 3 16 47 49
Route #2: 31 39 24 21 2
Route #3: 20 45 35 6 7
Route #4: 40 32 38 37
Route #5: 4 8 11 19 36 30 27
Route #6: 22 14 5 23 15 46
Route #7: 44 29 34 48 1 50
Route #8: 43 28 26 33
Route #9: 18 17 25 10 13 41 9 12
Cost 10604970.000000